100
128
7
28
14
13
53
16
32
62
8
13
8
25
24
13
15
51
29
20
1
48
43
57
30
14
13
19
21
48
22
51
46
2
30
49
13
1
35
29
31
39
15
42
1
16
23
24
25
20
34
32
25
45
36
37
54
55
31
18
33
37
36
50
30
48
23
63
20
45
24
22
28
61
29
33
39
22
49
25
29
34
2
23
34
56
53
53
38
22
30
41
56
63
62
58
1
5
64
36
52
40